Read MPS format model from file dat/rmp/DER_24_16384_30.mps
Reading time = 0.66 seconds
: 16408 rows, 77896 columns, 1762331 nonzeros
Gurobi Optimizer version 9.0.0 build v9.0.0rc2 (linux64)
Optimize a model with 16408 rows, 77896 columns and 1762331 nonzeros
Model fingerprint: 0x50891202
Coefficient statistics:
  Matrix range     [3e-05, 1e+01]
  Objective range  [2e-01, 1e+03]
  Bounds range     [1e+05, 1e+05]
  RHS range        [1e+00, 1e+00]
Ordering time: 0.01s

Barrier statistics:
 AA' NZ     : 3.720e+05
 Factor NZ  : 5.230e+05 (roughly 40 MBytes of memory)
 Factor Ops : 1.816e+07 (less than 1 second per iteration)
 Threads    : 1

                  Objective                Residual
Iter       Primal          Dual         Primal    Dual     Compl     Time
   0   9.31207072e+08 -5.76405658e+07  5.19e+07 7.80e-03  3.89e+05     0s
   1   2.23308745e+07 -1.14397012e+07  1.20e+06 3.64e-12  9.14e+03     0s
   2   1.08382687e+06 -7.17227771e+06  5.76e+04 5.46e-12  5.20e+02     1s
   3   1.26122365e+05 -4.69040914e+06  5.50e+03 3.64e-12  9.18e+01     1s
   4   2.40248979e+04 -6.60270636e+05  1.92e-10 3.64e-12  8.78e+00     1s
   5   2.38601841e+04 -2.13993285e+04  2.80e-10 3.64e-12  5.81e-01     1s
   6   2.38362073e+04 -3.51185069e+03  1.03e-10 1.82e-12  3.51e-01     1s
   7   2.36834228e+04  2.02298451e+04  3.06e-10 5.46e-12  4.43e-02     1s
   8   2.33744144e+04  2.28307175e+04  3.13e-10 5.46e-12  6.98e-03     1s
   9   2.32750517e+04  2.30327179e+04  3.30e-10 3.64e-12  3.11e-03     1s
  10   2.32151119e+04  2.31129024e+04  9.62e-10 1.82e-12  1.31e-03     1s
  11   2.31759756e+04  2.31414755e+04  8.91e-10 1.82e-12  4.43e-04     1s
  12   2.31639521e+04  2.31480870e+04  1.21e-09 1.82e-12  2.04e-04     1s
  13   2.31602914e+04  2.31515253e+04  9.83e-10 1.82e-12  1.13e-04     2s
  14   2.31582504e+04  2.31526490e+04  1.47e-09 1.82e-12  7.19e-05     2s
  15   2.31574663e+04  2.31529722e+04  9.80e-10 1.82e-12  5.77e-05     2s
  16   2.31565797e+04  2.31532680e+04  1.53e-09 1.82e-12  4.25e-05     2s
  17   2.31558666e+04  2.31535424e+04  2.06e-09 1.82e-12  2.98e-05     2s
  18   2.31555336e+04  2.31537164e+04  2.14e-09 1.82e-12  2.33e-05     2s
  19   2.31553767e+04  2.31538120e+04  1.88e-09 1.82e-12  2.01e-05     2s
  20   2.31548470e+04  2.31539176e+04  2.35e-09 6.16e-12  1.19e-05     2s
  21   2.31547598e+04  2.31539547e+04  2.18e-09 7.48e-12  1.03e-05     2s
  22   2.31544992e+04  2.31539959e+04  4.17e-09 1.04e-11  6.46e-06     2s
  23   2.31544549e+04  2.31540138e+04  4.09e-09 9.01e-12  5.66e-06     2s
  24   2.31543155e+04  2.31540240e+04  1.02e-08 9.06e-12  3.74e-06     2s
  25   2.31542572e+04  2.31540323e+04  5.80e-09 8.86e-12  2.89e-06     2s
  26   2.31541840e+04  2.31540418e+04  6.64e-09 7.75e-12  1.82e-06     3s
  27   2.31541353e+04  2.31540480e+04  6.29e-09 6.65e-12  1.12e-06     3s
  28   2.31541080e+04  2.31540486e+04  1.06e-08 5.11e-12  7.62e-07     3s
  29   2.31540880e+04  2.31540502e+04  1.11e-08 3.64e-12  4.85e-07     3s
  30   2.31540684e+04  2.31540508e+04  2.26e-08 2.52e-12  2.26e-07     3s
  31   2.31540620e+04  2.31540510e+04  2.46e-08 1.82e-12  1.41e-07     3s
  32   2.31540568e+04  2.31540512e+04  1.41e-07 3.64e-12  7.11e-08     3s
  33   2.31540539e+04  2.31540513e+04  5.28e-07 1.82e-12  3.41e-08     3s
  34   2.31540524e+04  2.31540513e+04  3.24e-07 2.73e-12  1.37e-08     3s
  35   2.31540518e+04  2.31540513e+04  5.65e-07 1.82e-12  6.39e-09     3s
  36   2.31540513e+04  2.31540513e+04  5.30e-07 1.82e-12  7.27e-10     3s

Barrier solved model in 36 iterations and 3.42 seconds
Optimal objective 2.31540513e+04

Solve time: 3.422044358
Barrier iterations: 36
